c SAT Generator for power-law distributed variable frequencies
c -g u -v 20 -c 91 -k 3 -p 2.750000 -b 3.200000 -f /home/schmidt/Devel/ni-kop-sat/data/ensemble/ruf20-91/ruf20-91-131 -u 1 -U 1 -s 1598800826
p cnf 20 91
-2 -3 8 0
-4 13 -18 0
9 15 19 0
-7 -11 14 0
-2 13 18 0
4 14 -16 0
-8 -11 -19 0
8 -16 -17 0
-2 15 -20 0
9 -12 15 0
10 -15 -18 0
-2 -7 -19 0
1 5 18 0
-5 6 -10 0
-6 9 -13 0
-13 -14 18 0
2 3 -17 0
-4 -5 15 0
-4 5 13 0
-3 11 13 0
-5 8 -20 0
2 17 18 0
2 -4 12 0
-8 -10 -12 0
-1 -14 15 0
-7 -15 19 0
6 -16 -17 0
-4 -5 -17 0
-3 -4 -14 0
-12 13 19 0
1 4 -12 0
8 -13 18 0
-2 -17 -18 0
-3 11 17 0
3 -5 9 0
3 -8 -17 0
-1 -4 13 0
-2 7 -9 0
-9 -13 14 0
-6 -9 -15 0
-2 -10 12 0
3 9 16 0
-3 7 -16 0
8 -11 15 0
-1 8 -9 0
7 12 19 0
-2 9 14 0
-7 9 11 0
8 15 -18 0
-2 -9 -12 0
6 -11 17 0
5 6 19 0
3 -8 -15 0
-7 16 -17 0
-2 -7 11 0
-5 9 16 0
-2 16 -20 0
-1 9 17 0
-9 16 17 0
-5 -14 16 0
5 -9 11 0
1 13 20 0
12 16 -18 0
-14 -18 -20 0
-5 10 15 0
-5 15 17 0
-8 -13 -19 0
1 13 17 0
-4 9 -11 0
5 -12 -14 0
-2 -8 -15 0
-13 -17 -19 0
3 -7 -11 0
-1 5 20 0
3 -11 -20 0
12 14 20 0
-3 7 -13 0
-2 -13 20 0
-6 -7 -11 0
-2 14 19 0
5 -8 13 0
-2 14 16 0
7 18 20 0
2 -7 18 0
8 -13 19 0
-1 -4 12 0
7 9 -20 0
12 13 -18 0
-1 4 10 0
5 8 -18 0
13 19 -20 0
